p cnf 12 24
12 10 8 0
12 10 -7 0
12 10 3 0
12 -9 8 0
12 -9 4 0
-12 -9 4 0
-12 -9 -1 0
-12 -6 -4 0
-12 6 3 0
-11 -8 6 0
-11 6 3 0
-11 -2 1 0
-10 -9 4 0
-10 7 -3 0
10 -6 -1 0
10 -4 -3 0
-10 -4 1 0
9 8 3 0
-9 3 1 0
-8 3 -2 0
7 -6 5 0
-7 -3 2 0
5 4 -3 0
3 2 1 0
